(declare-const j Int)
(declare-const term_to_project_onto0 Real)
(declare-const term_to_project_onto Real)
(declare-const term_to_project_onto1 Real)
(assert (exists
         ((|i'?1| Int) (|cont_aux'?2| Int) (|j'?3| Int) (K?4 Int) (tr?5 Int)
            (tr?6 Int) (|cont_aux'?7| Int) (|j'?8| Int) (cont_aux?9 Int)
            (i?10 Int))
         (and (<= (- cont_aux?9) 0) (<= (- i?10) 0)
                (or (<= (+ tr?6 1) 0) (<= (+ (- tr?5) 1) 0))
                (= (+ (- |j'?3|) K?4) 0)
                (<= (+ |cont_aux'?2| (- K?4) (- cont_aux?9)) 0)
                (<= (+ (- |cont_aux'?2|) cont_aux?9) 0)
                (or (and (= K?4 0) (= (+ (- |cont_aux'?2|) cont_aux?9) 0)
                           (= (- |j'?3|) 0))
                      (and (<= (+ (- K?4) 1) 0) (<= (- cont_aux?9) 0)
                             (<= (+ |j'?3| -10) 0) (<= (- |cont_aux'?2|) 0)
                             (<= (+ (- |j'?3|) 1) 0))) (<= (- K?4) 0)
                (<= (- |cont_aux'?2|) 0) (<= (- |j'?3|) 0)
                (<= (+ (- |j'?3|) 10) 0)
                (= (+ |cont_aux'?7| (- |cont_aux'?2|)) 0)
                (= (+ |j'?8| (- |j'?3|)) 0) (= (+ |i'?1| (- i?10) -1) 0)
                (= term_to_project_onto1 (+ |i'?1| (- i?10)))
                (= term_to_project_onto0 (+ |j'?8| (- j)))
                (= term_to_project_onto (+ |cont_aux'?7| (- cont_aux?9))))))
(check-sat)
